NAME : 10_3_3_3_(48).dat
COMMENT : Henke, Speranza, Wäscher, 2015
TYPE : MCVRP
DIMENSION : 11
EDGE_WEIGHT_TYPE : DISTANCE_MATRIX
CAPACITY : 1000
VEHICLES : 2
PRODUCT TYPES : 3
COMPARTMENTS : 3
NODE_COORD_SECTION
1 50 50
2 50.63 44.25
3 39.43 96.81
4 89.47 15.32
5 18.61 20.94
6 49.37 50.25
7 52.26 57.41
8 75.51 44.91
9 5.61 82.1
10 17.18 5.76
11 59.85 19.53
DEMAND_SECTION
1 0 0 0
2 92 63 12
3 59 31 29
4 116 62 14
5 3 11 37
6 71 66 36
7 29 11 38
8 11 28 36
9 58 29 8
10 121 34 26
11 66 40 14
DEPOT_SECTION
1
EOF